ATOMIC_SPECIES
Si 28.0855 Si_ONCV_PBE-1.0.upf upf201

LATTICE_CONSTANT
10.263493

ATOMIC_POSITIONS
Direct
Si
0.0
2
0.000000000 0.000000000 0.000000000 0 0 0
0.250000000 0.250000000 0.250000000 0 0 0
