INPUT_PARAMETERS
calculation = scf
suffix = t2_scf
basis_type = pw
stru_file = STRU
kpoint_file = KPT
ecutwfc = 60
ecutrho = 480
scf_thr = 1e-9
scf_nmax = 1
ks_solver = cg
nspin = 1
symmetry = 1
latname = fcc
out_level = ie
pseudo_dir = /home/yukino/TritonDFT-43C7/abacus_data/Pseudopotential
orbital_dir = /home/yukino/TritonDFT-43C7/abacus_data/StandardOrbitals
out_stru = 1
smearing_method = fixed
out_chg = 1
