INPUT_PARAMETERS
suffix                  si_nscf
stru_file               STRU
kpoint_file             KPT
pseudo_dir              /home/yukino/TritonDFT-43C7/abacus_data/Pseudopotential
read_file_dir           /home/yukino/TritonDFT-43C7/agent_rebuild/examples/si_pw/OUT.si_test
basis_type              pw
calculation             nscf
latname                 fcc
ecutwfc                 60
ecutrho                 480
scf_thr                 1.0e-9
scf_nmax                1
ks_solver               cg
nspin                   1
symmetry                1
init_chg                file
out_band                1
out_chg                 0
out_level               ie
