INPUT_PARAMETERS
calculation = nscf
suffix = t3_bands
basis_type = pw
stru_file = STRU
kpoint_file = KPT
ecutwfc = 80
scf_thr = 1e-7
pseudo_dir = ../abacus_data/Pseudopotential
orbital_dir = ../abacus_data/StandardOrbitals
out_stru = 1
init_chg = file
out_band = 1
bands_to_print = 1
