ATOMIC_SPECIES
Si 28.085500 Si_ONCV_PBE-1.0.upf upf201

LATTICE_CONSTANT
1.889726125457828

LATTICE_VECTORS
5.443702370000 0.000000000000 0.000000000000
0.000000000000 5.443702370000 0.000000000000
0.000000000000 0.000000000000 5.443702370000

ATOMIC_POSITIONS
Direct
Si
0.0
8
0.750000000 0.750000000 0.250000000 0 0 0
0.000000000 0.500000000 0.500000000 0 0 0
0.750000000 0.250000000 0.750000000 0 0 0
0.000000000 0.000000000 0.000000000 0 0 0
0.250000000 0.750000000 0.750000000 0 0 0
0.500000000 0.500000000 0.000000000 0 0 0
0.250000000 0.250000000 0.250000000 0 0 0
0.500000000 0.000000000 0.500000000 0 0 0
