ATOMIC_SPECIES
Si  28.0855 Si_ONCV_PBE-1.0.upf upf201

LATTICE_CONSTANT
10.2634930000

LATTICE_VECTORS
       -0.5000000000        0.0000000000        0.5000000000
        0.0000000000        0.5000000000        0.5000000000
       -0.5000000000        0.5000000000        0.0000000000

ATOMIC_POSITIONS
Direct

Si #label
0.0000   #magnetism
2 #number of atoms
        0.0000000000        0.0000000000        0.0000000000 m 0 0 0
        0.2500000000        0.2500000000        0.2500000000 m 0 0 0
