INPUT_PARAMETERS
calculation = nscf
suffix = t3_bands
basis_type = pw
stru_file = STRU
kpoint_file = KPT
ecutwfc = 60
ecutrho = 480
scf_thr = 1e-9
scf_nmax = 1
ks_solver = cg
nspin = 1
symmetry = 1
latname = fcc
out_level = ie
pseudo_dir = /home/yukino/TritonDFT-43C7/abacus_data/Pseudopotential
orbital_dir = /home/yukino/TritonDFT-43C7/abacus_data/StandardOrbitals
out_stru = 1
init_chg = file
read_file_dir = /home/yukino/TritonDFT-43C7/agent_rebuild/runs_retry2/02_relax/OUT.t2_relax
out_chg = 0
out_band = 1
