INPUT_PARAMETERS
calculation = nscf
suffix = t4_dos
basis_type = pw
stru_file = STRU
kpoint_file = KPT
ecutwfc = 60
ecutrho = 480
scf_thr = 1e-9
scf_nmax = 1
ks_solver = cg
nspin = 1
symmetry = 1
latname = fcc
out_level = ie
pseudo_dir = /home/yukino/TritonDFT-43C7/abacus_data/Pseudopotential
out_stru = 0
init_chg = file
read_file_dir = /home/yukino/TritonDFT-43C7/agent_rebuild/runs_retry3/03_bands/OUT.t3_bands
out_chg = 0
out_dos = 1
dos_emin_ev = -15.0
dos_emax_ev = 15.0
dos_edelta_ev = 0.01
