INPUT_PARAMETERS
suffix t4_dos
stru_file STRU
kpoint_file KPT
pseudo_dir /home/yukino/TritonDFT-43C7/abacus_data/Pseudopotential
basis_type pw
calculation nscf
ecutwfc 60
ecutrho 480
scf_thr 1e-9
scf_nmax 50
ks_solver cg
nspin 1
symmetry 1
out_level ie
out_stru 0
init_chg file
out_chg 0
out_dos 1
dos_emin_ev -15.0
dos_emax_ev 15.0
dos_edelta_ev 0.01
